p edge 22 48
e 1 6
e 1 8
e 1 19
e 1 21
e 1 9
e 1 10
e 1 22
e 2 16
e 2 10
e 2 15
e 3 18
e 3 7
e 3 11
e 3 15
e 3 13
e 4 11
e 4 18
e 4 12
e 5 13
e 7 21
e 7 19
e 7 22
e 7 11
e 7 15
e 7 13
e 8 19
e 8 17
e 9 21
e 9 16
e 9 10
e 10 20
e 10 16
e 10 15
e 11 15
e 11 13
e 12 21
e 12 15
e 12 18
e 12 14
e 13 15
e 15 17
e 15 16
e 16 19
e 16 20
e 16 18
e 17 20
e 18 20
e 20 22
